Welcome to the CBC MILP Solver 
Version: 2.10.7 
Build Date: Feb 14 2022 

command line - cbc inputs/new_tr/order/triang7_0_down_left_input.lp sec 1800 solve solu solutions/new_tr/triang7_0_down_left_input.lp (default strategy 1)
seconds was changed from 1e+100 to 1800
Continuous objective value is 305 - 0.07 seconds
Cgl0002I 474 variables fixed
Cgl0003I 0 fixed, 1 tightened bounds, 368 strengthened rows, 0 substitutions
Cgl0003I 0 fixed, 0 tightened bounds, 67 strengthened rows, 0 substitutions
Cgl0003I 0 fixed, 0 tightened bounds, 22 strengthened rows, 0 substitutions
Cgl0003I 0 fixed, 0 tightened bounds, 5 strengthened rows, 0 substitutions
Cgl0003I 0 fixed, 0 tightened bounds, 1 strengthened rows, 0 substitutions
Cgl0004I processed model has 1489 rows, 526 columns (526 integer (498 of which binary)) and 4902 elements
Cutoff increment increased from 1e-05 to 0.9999
Cbc0045I 1 integer variables out of 526 objects (526 integer) have cost of 1 - high priority
Cbc0045I branch on satisfied Y create fake objective Y random cost Y
Cbc0038I Initial state - 266 integers unsatisfied sum - 57.6032
Cbc0038I Pass   1: suminf.   23.22399 (156) obj. 348.351 iterations 458
Cbc0038I Pass   2: suminf.   18.97408 (130) obj. 380.188 iterations 124
Cbc0038I Pass   3: suminf.   19.10730 (134) obj. 382.26 iterations 55
Cbc0038I Pass   4: suminf.   18.03004 (128) obj. 378.301 iterations 77
Cbc0038I Pass   5: suminf.   17.42439 (143) obj. 377.542 iterations 37
Cbc0038I Pass   6: suminf.   11.86355 (102) obj. 388.374 iterations 201
Cbc0038I Pass   7: suminf.    9.58213 (118) obj. 388.675 iterations 66
Cbc0038I Pass   8: suminf.    2.84283 (51) obj. 382.258 iterations 115
Cbc0038I Pass   9: suminf.    1.55138 (33) obj. 382.341 iterations 37
Cbc0038I Pass  10: suminf.    6.15143 (85) obj. 377.701 iterations 270
Cbc0038I Pass  11: suminf.    6.15143 (85) obj. 377.701 iterations 3
Cbc0038I Pass  12: suminf.    2.89093 (31) obj. 356 iterations 159
Cbc0038I Pass  13: suminf.    0.00000 (0) obj. 367 iterations 76
Cbc0038I Solution found of 367
Cbc0038I Cleaned solution of 367
Cbc0038I Before mini branch and bound, 184 integers at bound fixed and 0 continuous
Cbc0038I Mini branch and bound did not improve solution (0.32 seconds)
Cbc0038I Round again with cutoff of 359.9
Cbc0038I Pass  14: suminf.   23.22399 (156) obj. 348.351 iterations 0
Cbc0038I Pass  15: suminf.   18.10795 (125) obj. 359.9 iterations 122
Cbc0038I Pass  16: suminf.   19.00815 (130) obj. 359.9 iterations 58
Cbc0038I Pass  17: suminf.   12.15482 (112) obj. 359.9 iterations 141
Cbc0038I Pass  18: suminf.   12.34530 (122) obj. 359.9 iterations 36
Cbc0038I Pass  19: suminf.    9.36355 (77) obj. 359.9 iterations 165
Cbc0038I Pass  20: suminf.    7.85426 (74) obj. 359.9 iterations 107
Cbc0038I Pass  21: suminf.    5.78530 (86) obj. 359.9 iterations 42
Cbc0038I Pass  22: suminf.   13.76223 (88) obj. 359.9 iterations 144
Cbc0038I Pass  23: suminf.    8.25483 (68) obj. 359.9 iterations 37
Cbc0038I Pass  24: suminf.    8.25483 (68) obj. 359.9 iterations 3
Cbc0038I Pass  25: suminf.    6.00532 (63) obj. 359.9 iterations 186
Cbc0038I Pass  26: suminf.    6.00532 (63) obj. 359.9 iterations 17
Cbc0038I Pass  27: suminf.   13.08211 (81) obj. 359.9 iterations 157
Cbc0038I Pass  28: suminf.    4.39583 (39) obj. 359.9 iterations 116
Cbc0038I Pass  29: suminf.    4.65924 (54) obj. 359.9 iterations 72
Cbc0038I Pass  30: suminf.    4.40634 (55) obj. 359.9 iterations 14
Cbc0038I Pass  31: suminf.    8.64828 (47) obj. 345.092 iterations 141
Cbc0038I Pass  32: suminf.    2.58948 (27) obj. 359.9 iterations 145
Cbc0038I Pass  33: suminf.    2.58948 (27) obj. 359.9 iterations 8
Cbc0038I Pass  34: suminf.    4.78329 (34) obj. 359.9 iterations 50
Cbc0038I Pass  35: suminf.    1.61650 (16) obj. 359.9 iterations 19
Cbc0038I Pass  36: suminf.    2.26040 (24) obj. 359.9 iterations 91
Cbc0038I Pass  37: suminf.    2.26040 (24) obj. 359.9 iterations 4
Cbc0038I Pass  38: suminf.    4.53656 (31) obj. 357.046 iterations 144
Cbc0038I Pass  39: suminf.    3.52681 (40) obj. 359.9 iterations 66
Cbc0038I Pass  40: suminf.    4.16830 (38) obj. 359.9 iterations 67
Cbc0038I Pass  41: suminf.    1.85117 (29) obj. 359.9 iterations 12
Cbc0038I Pass  42: suminf.    1.85117 (29) obj. 359.9 iterations 0
Cbc0038I Pass  43: suminf.    2.09743 (27) obj. 359.9 iterations 36
Cbc0038I Pass  44: suminf.    1.92617 (27) obj. 359.9 iterations 2
Cbc0038I Pass  45: suminf.    3.79873 (41) obj. 359.9 iterations 66
Cbc0038I Pass  46: suminf.    3.26821 (44) obj. 359.9 iterations 24
Cbc0038I Pass  47: suminf.   10.56064 (62) obj. 359.9 iterations 119
Cbc0038I Pass  48: suminf.    8.29527 (70) obj. 359.9 iterations 43
Cbc0038I Pass  49: suminf.    8.29527 (70) obj. 359.9 iterations 3
Cbc0038I Pass  50: suminf.    5.00436 (39) obj. 359.9 iterations 113
Cbc0038I Pass  51: suminf.    0.43640 (46) obj. 359.9 iterations 70
Cbc0038I Pass  52: suminf.    7.15242 (52) obj. 359.9 iterations 145
Cbc0038I Pass  53: suminf.   32.44779 (178) obj. 359.9 iterations 289
Cbc0038I Pass  54: suminf.   14.31113 (105) obj. 359.9 iterations 269
Cbc0038I Pass  55: suminf.   10.89304 (93) obj. 359.9 iterations 113
Cbc0038I Pass  56: suminf.    1.77558 (64) obj. 359.9 iterations 100
Cbc0038I Pass  57: suminf.    1.77558 (64) obj. 359.9 iterations 3
Cbc0038I Pass  58: suminf.    6.50976 (73) obj. 359.9 iterations 152
Cbc0038I Pass  59: suminf.    6.15864 (74) obj. 359.9 iterations 13
Cbc0038I Pass  60: suminf.    5.83520 (47) obj. 359.9 iterations 87
Cbc0038I Pass  61: suminf.    0.38748 (26) obj. 359.9 iterations 48
Cbc0038I Pass  62: suminf.    5.75308 (54) obj. 359.9 iterations 155
Cbc0038I Pass  63: suminf.    3.93540 (49) obj. 359.9 iterations 45
Cbc0038I Pass  64: suminf.    0.39885 (52) obj. 359.9 iterations 112
Cbc0038I Pass  65: suminf.   10.23215 (73) obj. 359.9 iterations 110
Cbc0038I Pass  66: suminf.    8.85944 (71) obj. 359.9 iterations 37
Cbc0038I Pass  67: suminf.    7.51863 (61) obj. 359.9 iterations 77
Cbc0038I Pass  68: suminf.    5.27945 (54) obj. 359.9 iterations 49
Cbc0038I Pass  69: suminf.    7.72719 (54) obj. 359.9 iterations 73
Cbc0038I Pass  70: suminf.    6.37250 (54) obj. 359.9 iterations 11
Cbc0038I Pass  71: suminf.    4.72627 (44) obj. 359.9 iterations 49
Cbc0038I Pass  72: suminf.    3.13838 (35) obj. 359.9 iterations 27
Cbc0038I Pass  73: suminf.    3.12808 (35) obj. 359.9 iterations 11
Cbc0038I Pass  74: suminf.    5.51661 (40) obj. 359.9 iterations 80
Cbc0038I Pass  75: suminf.    2.68827 (46) obj. 359.9 iterations 29
Cbc0038I Pass  76: suminf.    6.02048 (40) obj. 359.9 iterations 95
Cbc0038I Pass  77: suminf.    2.49346 (56) obj. 359.9 iterations 100
Cbc0038I Pass  78: suminf.    0.41931 (48) obj. 359.9 iterations 23
Cbc0038I Pass  79: suminf.    9.69813 (79) obj. 359.9 iterations 163
Cbc0038I Pass  80: suminf.    8.41955 (88) obj. 359.9 iterations 55
Cbc0038I Pass  81: suminf.    8.41361 (70) obj. 359.9 iterations 15
Cbc0038I Pass  82: suminf.    8.00169 (45) obj. 359.9 iterations 87
Cbc0038I Pass  83: suminf.    0.90796 (33) obj. 359.9 iterations 91
Cbc0038I Pass  84: suminf.    6.17199 (44) obj. 359.9 iterations 189
Cbc0038I Pass  85: suminf.    4.75399 (44) obj. 359.9 iterations 20
Cbc0038I Pass  86: suminf.    4.67333 (45) obj. 359.9 iterations 105
Cbc0038I Pass  87: suminf.    4.67333 (45) obj. 359.9 iterations 10
Cbc0038I Pass  88: suminf.    2.13934 (28) obj. 359.9 iterations 65
Cbc0038I Pass  89: suminf.    0.97706 (29) obj. 359.9 iterations 13
Cbc0038I Pass  90: suminf.    5.89511 (49) obj. 359.9 iterations 80
Cbc0038I Pass  91: suminf.    0.37992 (29) obj. 359.9 iterations 36
Cbc0038I Pass  92: suminf.    5.72023 (52) obj. 359.9 iterations 70
Cbc0038I Pass  93: suminf.    0.37278 (29) obj. 359.9 iterations 45
Cbc0038I Pass  94: suminf.   24.39795 (133) obj. 359.9 iterations 278
Cbc0038I Pass  95: suminf.    6.24760 (62) obj. 359.9 iterations 243
Cbc0038I Pass  96: suminf.    0.81717 (47) obj. 359.9 iterations 76
Cbc0038I Pass  97: suminf.    9.23794 (68) obj. 359.9 iterations 118
Cbc0038I Pass  98: suminf.    3.30089 (52) obj. 359.9 iterations 49
Cbc0038I Pass  99: suminf.    3.16065 (44) obj. 359.9 iterations 52
Cbc0038I Pass 100: suminf.    0.88876 (46) obj. 359.9 iterations 20
Cbc0038I Pass 101: suminf.    1.81893 (37) obj. 359.9 iterations 39
Cbc0038I Pass 102: suminf.    0.37278 (29) obj. 359.9 iterations 28
Cbc0038I Pass 103: suminf.    5.74610 (52) obj. 359.9 iterations 64
Cbc0038I Pass 104: suminf.   38.60311 (171) obj. 359.9 iterations 372
Cbc0038I Pass 105: suminf.   22.94996 (142) obj. 359.9 iterations 226
Cbc0038I Pass 106: suminf.   19.70124 (119) obj. 359.9 iterations 56
Cbc0038I Pass 107: suminf.   19.60787 (118) obj. 359.9 iterations 45
Cbc0038I Pass 108: suminf.   11.52334 (97) obj. 359.9 iterations 100
Cbc0038I Pass 109: suminf.   11.52334 (97) obj. 359.9 iterations 2
Cbc0038I Pass 110: suminf.    7.97450 (69) obj. 359.9 iterations 117
Cbc0038I Pass 111: suminf.    2.18241 (35) obj. 359.9 iterations 77
Cbc0038I Pass 112: suminf.    7.96282 (38) obj. 359.9 iterations 95
Cbc0038I Pass 113: suminf.   41.07946 (200) obj. 359.9 iterations 387
Cbc0038I No solution found this major pass
Cbc0038I Before mini branch and bound, 66 integers at bound fixed and 0 continuous
Cbc0038I Mini branch and bound did not improve solution (0.89 seconds)
Cbc0038I After 0.89 seconds - Feasibility pump exiting with objective of 367 - took 0.71 seconds
Cbc0012I Integer solution of 367 found by feasibility pump after 0 iterations and 0 nodes (0.89 seconds)
Cbc0031I 29 added rows had average density of 63.62069
Cbc0013I At root node, 29 cuts changed objective from 305.00006 to 317.3361 in 10 passes
Cbc0014I Cut generator 0 (Probing) - 93 row cuts average 2.3 elements, 11 column cuts (11 active)  in 0.037 seconds - new frequency is 1
Cbc0014I Cut generator 1 (Gomory) - 70 row cuts average 165.6 elements, 0 column cuts (0 active)  in 0.080 seconds - new frequency is 1
Cbc0014I Cut generator 2 (Knapsack) - 16 row cuts average 4.6 elements, 0 column cuts (0 active)  in 0.007 seconds - new frequency is 1
Cbc0014I Cut generator 3 (Clique) - 0 row cuts average 0.0 elements, 0 column cuts (0 active)  in 0.003 seconds - new frequency is -100
Cbc0014I Cut generator 4 (MixedIntegerRounding2) - 0 row cuts average 0.0 elements, 0 column cuts (0 active)  in 0.006 seconds - new frequency is -100
Cbc0014I Cut generator 5 (FlowCover) - 0 row cuts average 0.0 elements, 0 column cuts (0 active)  in 0.006 seconds - new frequency is -100
Cbc0014I Cut generator 6 (TwoMirCuts) - 316 row cuts average 189.4 elements, 0 column cuts (0 active)  in 0.322 seconds - new frequency is 1
Cbc0014I Cut generator 7 (ZeroHalf) - 1 row cuts average 29.0 elements, 0 column cuts (0 active)  in 0.006 seconds - new frequency is -100
Cbc0010I After 0 nodes, 1 on tree, 367 best solution, best possible 317.3361 (2.97 seconds)
Cbc0038I Full problem 1489 rows 526 columns, reduced to 312 rows 100 columns
Cbc0038I Full problem 1489 rows 526 columns, reduced to 255 rows 82 columns
Cbc0038I Full problem 1489 rows 526 columns, reduced to 474 rows 142 columns
Cbc0010I After 1000 nodes, 5 on tree, 367 best solution, best possible 323.97804 (47.40 seconds)
Cbc0038I Full problem 1489 rows 526 columns, reduced to 289 rows 81 columns
Cbc0010I After 2000 nodes, 12 on tree, 367 best solution, best possible 323.97804 (74.17 seconds)
Cbc0010I After 3000 nodes, 6 on tree, 367 best solution, best possible 323.97804 (98.66 seconds)
Cbc0010I After 4000 nodes, 8 on tree, 367 best solution, best possible 323.97804 (119.16 seconds)
Cbc0016I Integer solution of 362 found by strong branching after 1011414 iterations and 4921 nodes (137.62 seconds)
Cbc0001I Search completed - best objective 362, took 1014093 iterations and 4924 nodes (137.89 seconds)
Cbc0032I Strong branching done 10252 times (448600 iterations), fathomed 209 nodes and fixed 778 variables
Cbc0035I Maximum depth 69, 0 variables fixed on reduced cost
Cuts at root node changed objective from 305 to 317.336
Probing was tried 984 times and created 82021 cuts of which 0 were active after adding rounds of cuts (1.690 seconds)
Gomory was tried 593 times and created 1022 cuts of which 0 were active after adding rounds of cuts (0.829 seconds)
Knapsack was tried 593 times and created 2897 cuts of which 0 were active after adding rounds of cuts (0.312 seconds)
Clique was tried 10 times and created 0 cuts of which 0 were active after adding rounds of cuts (0.003 seconds)
MixedIntegerRounding2 was tried 10 times and created 0 cuts of which 0 were active after adding rounds of cuts (0.006 seconds)
FlowCover was tried 10 times and created 0 cuts of which 0 were active after adding rounds of cuts (0.006 seconds)
TwoMirCuts was tried 593 times and created 9222 cuts of which 0 were active after adding rounds of cuts (0.916 seconds)
ZeroHalf was tried 1 times and created 1 cuts of which 0 were active after adding rounds of cuts (0.006 seconds)
ImplicationCuts was tried 35 times and created 562 cuts of which 0 were active after adding rounds of cuts (0.007 seconds)

Result - Optimal solution found

Objective value:                362.00000000
Enumerated nodes:               4924
Total iterations:               1014093
Time (CPU seconds):             137.92
Time (Wallclock seconds):       138.84

Total time (CPU seconds):       137.93   (Wallclock seconds):       138.85

